10
700 645 468  935
738 462 782  406
819 635 682  292
728 410 941  519
908 464 828  451
481 637 746  675
606 839 491  865
500 571 561  507
970 523 716  728
485 992 406  996
15
174 767 497  136 215
193 631 40  192 50
330 725 393  245 293
736 229 745  183 76
395 347 775  34 165
47 429 50  131 2
119 86 251  151 271
411 293 576  226 58
418 16 313  286 19
199 620 70  188 44
102 657 382  79 147
300 492 365  143 135
74 471 161  180 284
328 214 776  51 217
701 437 238  187 238
